(set-logic HORN)
(declare-fun !inv0 (Int (Array Int Int) (Array Int Bool) Int ) Bool)
(declare-fun !inv1 (Int (Array Int Int) (Array Int Bool) Int Bool ) Bool)
(assert (forall ((N@0 Int)(b@0 (Array Int Int))(a@0 (Array Int Int))(i@0 Int)(i@1 Int)) (=> (and (> |N@0| 0) (= |i@0| 0) (= |i@1| 0)) (!inv0 |N@0| |a@0| |b@0| |i@1|))))
(assert (forall ((N@0 Int)(a@0 (Array Int Int))(b@0 (Array Int Int))(i@0 Int)(f@0 Bool)(i@1 Int)) (=> (and (!inv0 |N@0| |a@0| |b@0| |i@0|) (not (< |i@0| |N@0|)) (= |f@0| true) (= |i@1| 0)) (!inv1 |N@0| |a@0| |b@0| |i@1| |f@0|))))
(assert (forall ((N@0 Int)(a@0 (Array Int Int))(b@0 (Array Int Int))(i@0 Int)(f@0 Bool)) (=> (and (!inv1 |N@0| |a@0| |b@0| |i@0| |f@0|) (not (< |i@0| |N@0|)) (not |f@0|)) false)))
(assert (forall ((N@0 Int)(a@0 (Array Int Int))(b@0 (Array Int Int))(i@0 Int)(i@1 Int)(b@1 (Array Int Int))) (=> (and (!inv0 |N@0| |a@0| |b@1| |i@0|) (= |i@1| (+ |i@0| 1)) (< |i@0| |N@0|) (not (>= (select |a@0| |i@0|) 0)) (= |b@0| (store |b@1| |i@0| false))) (!inv0 |N@0| |a@0| |b@0| |i@1|))))
(assert (forall ((N@0 Int)(a@0 (Array Int Int))(b@0 (Array Int Int))(i@0 Int)(i@1 Int)(b@1 (Array Int Int))) (=> (and (!inv0 |N@0| |a@0| |b@1| |i@0|) (= |i@1| (+ |i@0| 1)) (< |i@0| |N@0|) (>= (select |a@0| |i@0|) 0) (= |b@0| (store |b@1| |i@0| true))) (!inv0 |N@0| |a@0| |b@0| |i@1|))))
(assert (forall ((N@0 Int)(a@0 (Array Int Int))(b@0 (Array Int Int))(i@0 Int)(f@0 Bool)(i@1 Int)(f@3 Bool)(f@1 Bool)) (=> (and (!inv1 |N@0| |a@0| |b@0| |i@0| |f@3|) (= |i@1| (+ |i@0| 1)) (= |f@0| false) (< |i@0| |N@0|) (= |f@1| false) (< (select |a@0| |i@0|) 0) (not (select |b@0| |i@0|)) (>= (select |a@0| |i@0|) 0) (not (select |b@0| |i@0|))) (!inv1 |N@0| |a@0| |b@0| |i@1| |f@0|))))
(assert (forall ((N@0 Int)(a@0 (Array Int Int))(b@0 (Array Int Int))(i@0 Int)(f@0 Bool)(i@1 Int)(f@1 Bool)) (=> (and (!inv1 |N@0| |a@0| |b@0| |i@0| |f@1|) (= |i@1| (+ |i@0| 1)) (= |f@0| false) (< |i@0| |N@0|) (not (and (>= (select |a@0| |i@0|) 0) (not (select |b@0| |i@0|)))) (< (select |a@0| |i@0|) 0) (not (select |b@0| |i@0|))) (!inv1 |N@0| |a@0| |b@0| |i@1| |f@0|))))
(assert (forall ((N@0 Int)(a@0 (Array Int Int))(b@0 (Array Int Int))(i@0 Int)(f@0 Bool)(i@1 Int)(f@2 Bool)) (=> (and (!inv1 |N@0| |a@0| |b@0| |i@0| |f@2|) (= |i@1| (+ |i@0| 1)) (not (and (< (select |a@0| |i@0|) 0) (not (select |b@0| |i@0|)))) (< |i@0| |N@0|) (= |f@0| false) (>= (select |a@0| |i@0|) 0) (not (select |b@0| |i@0|))) (!inv1 |N@0| |a@0| |b@0| |i@1| |f@0|))))
(assert (forall ((N@0 Int)(a@0 (Array Int Int))(b@0 (Array Int Int))(i@0 Int)(f@0 Bool)(i@1 Int)) (=> (and (!inv1 |N@0| |a@0| |b@0| |i@0| |f@0|) (= |i@1| (+ |i@0| 1)) (not (and (< (select |a@0| |i@0|) 0) (not (select |b@0| |i@0|)))) (< |i@0| |N@0|) (not (and (>= (select |a@0| |i@0|) 0) (not (select |b@0| |i@0|))))) (!inv1 |N@0| |a@0| |b@0| |i@1| |f@0|))))
(check-sat)